NAME : random1
TYPE : HCP
COMMENT : 
DIMENSION : 600
EDGE_DATA_FORMAT : EDGE_LIST
EDGE_DATA_SECTION
1 2
1 7
1 13
2 8
2 14
3 9
3 15
4 10
4 16
5 11
5 17
6 10
6 12
6 18
7 19
8 20
9 21
10 22
11 23
12 24
13 22
13 25
14 16
14 26
15 17
15 27
16 28
17 18
17 20
17 29
18 22
18 30
19 31
20 23
20 32
21 33
22 34
23 35
24 36
25 28
25 29
25 32
25 37
26 31
26 38
27 28
27 34
27 39
28 34
28 40
29 32
29 34
29 41
30 42
31 34
31 43
32 44
33 45
34 46
35 47
36 48
37 39
37 49
38 40
38 43
38 50
39 40
39 42
39 44
39 45
39 51
40 44
40 52
41 47
41 53
42 46
42 54
43 55
44 56
45 57
46 58
47 59
48 60
49 52
49 61
50 51
50 53
50 54
50 59
50 62
51 56
51 58
51 63
52 64
53 56
53 57
53 65
54 57
54 59
54 66
55 57
55 67
56 58
56 68
57 69
58 59
58 70
59 71
60 72
61 69
61 71
61 73
62 64
62 71
62 74
63 69
63 75
64 69
64 76
65 67
65 68
65 69
65 77
66 78
67 69
67 79
68 71
68 80
69 81
70 82
71 83
72 84
73 75
73 76
73 77
73 82
73 83
73 85
74 76
74 79
74 86
75 87
76 77
76 81
76 82
76 88
77 83
77 89
78 83
78 90
79 80
79 81
79 83
79 91
80 92
81 93
82 94
83 95
84 96
85 97
86 87
86 93
86 98
87 99
88 89
88 92
88 100
89 94
89 101
90 92
90 102
91 92
91 103
92 104
93 105
94 106
95 107
96 108
97 101
97 102
97 103
97 106
97 109
98 99
98 104
98 110
99 100
99 101
99 105
99 111
100 101
100 105
100 107
100 112
101 113
102 105
102 114
103 115
104 105
104 116
105 117
106 118
107 119
108 120
109 114
109 121
110 113
110 114
110 118
110 122
111 112
111 123
112 114
112 124
113 115
113 116
113 117
113 125
114 116
114 126
115 127
116 117
116 128
117 119
117 129
118 130
119 131
120 132
121 127
121 133
122 124
122 125
122 129
122 134
123 124
123 135
124 136
125 137
126 128
126 138
127 139
128 131
128 140
129 141
130 142
131 143
132 144
133 139
133 145
134 146
135 136
135 140
135 141
135 143
135 147
136 142
136 143
136 148
137 141
137 149
138 150
139 140
139 151
140 152
141 143
141 153
142 154
143 155
144 156
145 147
145 149
145 152
145 157
146 149
146 152
146 158
147 152
147 159
148 160
149 151
149 153
149 161
150 154
150 155
150 162
151 154
151 163
152 153
152 164
153 165
154 166
155 167
156 168
157 160
157 164
157 169
158 165
158 170
159 162
159 165
159 171
160 166
160 172
161 164
161 173
162 166
162 167
162 174
163 164
163 175
164 176
165 177
166 178
167 179
168 180
169 170
169 171
169 176
169 178
169 181
170 173
170 174
170 177
170 182
171 173
171 178
171 183
172 174
172 176
172 177
172 184
173 174
173 179
173 185
174 176
174 177
174 179
174 186
175 178
175 187
176 188
177 189
178 179
178 190
179 191
180 192
181 190
181 193
182 183
182 194
183 184
183 195
184 190
184 196
185 189
185 191
185 197
186 190
186 198
187 199
188 189
188 190
188 191
188 200
189 201
190 202
191 203
192 204
193 199
193 205
194 197
194 200
194 201
194 206
195 196
195 201
195 207
196 197
196 201
196 208
197 199
197 209
198 199
198 210
199 211
200 203
200 212
201 213
202 214
203 215
204 216
205 211
205 213
205 214
205 217
206 213
206 218
207 209
207 219
208 210
208 220
209 221
210 222
211 212
211 215
211 223
212 224
213 225
214 226
215 227
216 228
217 222
217 229
218 223
218 230
219 225
219 231
220 221
220 225
220 226
220 232
221 223
221 233
222 234
223 225
223 235
224 225
224 236
225 237
226 238
227 239
228 240
229 241
230 233
230 239
230 242
231 234
231 237
231 243
232 236
232 238
232 244
233 238
233 245
234 238
234 246
235 247
236 248
237 249
238 239
238 250
239 251
240 252
241 251
241 253
242 248
242 254
243 255
244 245
244 256
245 257
246 247
246 249
246 251
246 258
247 259
248 260
249 250
249 251
249 261
250 251
250 262
251 263
252 264
253 260
253 265
254 255
254 260
254 266
255 258
255 261
255 263
255 267
256 258
256 262
256 268
257 258
257 269
258 261
258 270
259 271
260 261
260 262
260 272
261 263
261 273
262 274
263 275
264 276
265 268
265 271
265 277
266 268
266 274
266 278
267 271
267 275
267 279
268 280
269 270
269 272
269 281
270 272
270 273
270 282
271 283
272 274
272 284
273 275
273 285
274 286
275 287
276 288
277 281
277 285
277 289
278 280
278 281
278 290
279 286
279 291
280 292
281 285
281 286
281 293
282 284
282 294
283 287
283 295
284 296
285 297
286 298
287 299
288 300
289 296
289 299
289 301
290 291
290 293
290 296
290 302
291 299
291 303
292 297
292 304
293 298
293 305
294 297
294 306
295 296
295 299
295 307
296 308
297 298
297 309
298 310
299 311
300 312
301 306
301 313
302 303
302 314
303 310
303 315
304 307
304 310
304 316
305 306
305 308
305 309
305 317
306 311
306 318
307 310
307 319
308 320
309 321
310 322
311 323
312 324
313 325
314 318
314 323
314 326
315 318
315 327
316 320
316 323
316 328
317 318
317 319
317 329
318 330
319 331
320 321
320 332
321 333
322 334
323 335
324 336
325 328
325 333
325 337
326 328
326 329
326 332
326 333
326 338
327 328
327 329
327 339
328 332
328 340
329 333
329 341
330 331
330 335
330 342
331 335
331 343
332 335
332 344
333 335
333 345
334 335
334 346
335 347
336 348
337 349
338 342
338 345
338 346
338 350
339 340
339 344
339 346
339 351
340 352
341 343
341 347
341 353
342 354
343 355
344 356
345 357
346 358
347 359
348 360
349 361
350 354
350 359
350 362
351 353
351 363
352 356
352 358
352 359
352 364
353 358
353 365
354 356
354 358
354 366
355 359
355 367
356 368
357 369
358 370
359 371
360 372
361 368
361 373
362 369
362 371
362 374
363 366
363 367
363 375
364 369
364 376
365 377
366 371
366 378
367 369
367 371
367 379
368 369
368 380
369 381
370 382
371 383
372 384
373 385
374 375
374 377
374 379
374 380
374 386
375 387
376 377
376 388
377 378
377 389
378 383
378 390
379 391
380 382
380 392
381 393
382 394
383 395
384 396
385 388
385 389
385 390
385 393
385 395
385 397
386 394
386 398
387 399
388 391
388 393
388 400
389 390
389 401
390 392
390 393
390 394
390 402
391 403
392 404
393 405
394 406
395 407
396 408
397 405
397 409
398 401
398 405
398 410
399 411
400 404
400 406
400 412
401 413
402 407
402 414
403 415
404 416
405 407
405 417
406 407
406 418
407 419
408 420
409 412
409 413
409 415
409 421
410 414
410 418
410 422
411 413
411 415
411 416
411 418
411 423
412 424
413 425
414 426
415 416
415 427
416 419
416 428
417 429
418 430
419 431
420 432
421 428
421 429
421 433
422 423
422 434
423 427
423 428
423 430
423 431
423 435
424 431
424 436
425 426
425 437
426 427
426 438
427 430
427 439
428 429
428 440
429 431
429 441
430 442
431 443
432 444
433 437
433 445
434 446
435 439
435 447
436 441
436 448
437 449
438 440
438 441
438 450
439 443
439 451
440 452
441 453
442 454
443 455
444 456
445 450
445 454
445 457
446 458
447 449
447 453
447 459
448 460
449 453
449 461
450 453
450 462
451 463
452 464
453 465
454 466
455 467
456 468
457 462
457 464
457 469
458 461
458 470
459 462
459 471
460 463
460 472
461 463
461 473
462 463
462 465
462 467
462 474
463 465
463 475
464 465
464 476
465 477
466 478
467 479
468 480
469 470
469 471
469 472
469 479
469 481
470 473
470 478
470 482
471 474
471 476
471 483
472 476
472 478
472 479
472 484
473 478
473 485
474 475
474 486
475 477
475 479
475 487
476 478
476 488
477 489
478 490
479 491
480 492
481 484
481 487
481 493
482 490
482 494
483 488
483 490
483 495
484 486
484 487
484 489
484 496
485 487
485 497
486 490
486 498
487 489
487 491
487 499
488 500
489 501
490 502
491 503
492 504
493 496
493 501
493 505
494 495
494 498
494 499
494 506
495 499
495 503
495 507
496 501
496 508
497 509
498 499
498 510
499 511
500 501
500 512
501 513
502 514
503 515
504 516
505 507
505 508
505 509
505 512
505 517
506 508
506 512
506 514
506 518
507 509
507 510
507 515
507 519
508 509
508 520
509 514
509 521
510 511
510 522
511 512
511 513
511 514
511 523
512 524
513 525
514 526
515 527
516 528
517 524
517 525
517 526
517 529
518 530
519 523
519 531
520 521
520 523
520 532
521 523
521 524
521 526
521 533
522 525
522 534
523 535
524 536
525 537
526 527
526 538
527 539
528 540
529 541
530 535
530 537
530 539
530 542
531 536
531 538
531 539
531 543
532 538
532 544
533 534
533 545
534 536
534 537
534 546
535 538
535 547
536 548
537 549
538 550
539 551
540 552
541 542
541 543
541 548
541 549
541 553
542 547
542 554
543 547
543 555
544 551
544 556
545 548
545 550
545 557
546 558
547 551
547 559
548 550
548 560
549 561
550 562
551 563
552 564
553 558
553 565
554 557
554 566
555 563
555 567
556 560
556 563
556 568
557 560
557 563
557 569
558 570
559 571
560 561
560 563
560 572
561 562
561 563
561 573
562 574
563 575
564 576
565 571
565 573
565 574
565 577
566 574
566 578
567 569
567 575
567 579
568 573
568 580
569 573
569 581
570 572
570 582
571 583
572 573
572 584
573 574
573 585
574 586
575 587
576 588
577 581
577 583
577 584
577 589
578 579
578 581
578 584
578 590
579 581
579 591
580 584
580 585
580 586
580 592
581 585
581 587
581 593
582 594
583 595
584 596
585 597
586 598
587 599
588 600
589 590
591 592
593 594
595 596
597 598
599 600
-1
EOF
